# Solution for model iteration_7
# Objective value = 1.8602000000000011e+01
vars[0] 0
vars[1] 0.001
vars[2] 0.001
vars[3] 30.001
vars[4] 3.0002000000000002e+01
vars[5] 40.002
vars[6] 3.0601999999999997e+01
vars[7] 7.8603000000000009e+01
vars[8] 0
vars[9] 1.8602000000000011e+01
lambda[0] 0
lambda[1] 0
lambda[2] 0
lambda[3] 0
lambda[4] 1
lambda[5] 0
lambda[6] 0
